n = 8;
budget = 1250000;
groceries = [|2724,144,186,156,122,2231|4374,225,261,270,56,2785|2142,70,245,98,102,1523|1386,91,161,42,52,1873|1341,126,108,45,116,3834|1500,50,10,140,148,2237|1560,54,66,120,116,1342|4208,48,464,240,134,3323|];
requirements = [|36625,42405|950,1265|5000,5500|1425,1705|];